GLPSOL--GLPK LP/MIP Solver 5.0
Parameter(s) specified in the command line:
 --lp ../modeles/10_29.lp --log 10_29.log
Reading problem data from '../modeles/10_29.lp'...
331 rows, 600 columns, 2080 non-zeros
290 integer variables, all of which are binary
947 lines were read
GLPK Integer Optimizer 5.0
331 rows, 600 columns, 2080 non-zeros
290 integer variables, all of which are binary
Preprocessing...
300 constraint coefficient(s) were reduced
331 rows, 590 columns, 2070 non-zeros
290 integer variables, all of which are binary
Scaling...
 A: min|aij| =  4.756e-03  max|aij| =  4.000e+00  ratio =  8.410e+02
GM: min|aij| =  1.857e-01  max|aij| =  5.385e+00  ratio =  2.900e+01
EQ: min|aij| =  3.448e-02  max|aij| =  1.000e+00  ratio =  2.900e+01
2N: min|aij| =  3.125e-02  max|aij| =  1.590e+00  ratio =  5.087e+01
Constructing initial basis...
Size of triangular part is 331
Solving LP relaxation...
GLPK Simplex Optimizer 5.0
331 rows, 590 columns, 2070 non-zeros
      0: obj =   2.000000000e+01 inf =   4.950e+01 (21)
     69: obj =   4.767857143e-01 inf =   0.000e+00 (0)
*   183: obj =  -3.105603448e+00 inf =   2.744e-16 (0)
OPTIMAL LP SOLUTION FOUND
Integer optimization begins...
Long-step dual simplex will be used
+   183: mip =     not found yet >=              -inf        (1; 0)
+   189: >>>>>  -3.105603448e+00 >=  -3.105603448e+00 < 0.1% (5; 0)
+   189: mip =  -3.105603448e+00 >=     tree is empty   0.0% (0; 9)
INTEGER OPTIMAL SOLUTION FOUND
Time used:   0.0 secs
Memory used: 0.9 Mb (946854 bytes)
